15 40
25
2 11 13 3
3 2 5 38
7 10 4 0
4 8 6 30
5 9 10 18
2 7 4 10
1 4 5 34
1 6 4 34
5 4 10 14
3 8 12 32
3 1 10 13
5 5 10 27
1 3 10 10
4 12 6 10
2 6 4 28
4 2 8 38
4 11 0 26
2 10 11 3
2 3 2 37
2 11 4 17
4 3 11 0
4 26 0 0
4 8 6 22
2 3 0 37
2 6 10 32
